
Gurobi 6.5.2 (linux64) logging started Mon Aug 29 10:57:52 2016

Optimize a model with 41 rows, 115 columns and 261 nonzeros
Coefficient statistics:
  Matrix range    [1e+00, 2e+00]
  Objective range [1e+00, 1e+02]
  Bounds range    [1e+00, 1e+00]
  RHS range       [1e+00, 1e+00]
Found heuristic solution: objective 867
Presolve removed 15 rows and 4 columns
Presolve time: 0.00s
Presolved: 26 rows, 111 columns, 221 nonzeros
Variable types: 0 continuous, 111 integer (111 binary)

Root relaxation: objective 4.565000e+02, 26 iterations, 0.00 seconds

    Nodes    |    Current Node    |     Objective Bounds      |     Work
 Expl Unexpl |  Obj  Depth IntInf | Incumbent    BestBd   Gap | It/Node Time

     0     0  456.50000    0    8  867.00000  456.50000  47.3%     -    0s
H    0     0                     775.0000000  456.50000  41.1%     -    0s
H    0     0                     679.0000000  456.50000  32.8%     -    0s
     0     0  475.50000    0    2  679.00000  475.50000  30.0%     -    0s
H    0     0                     649.0000000  475.50000  26.7%     -    0s
H    0     0                     483.0000000  475.50000  1.55%     -    0s
     0     0     cutoff    0       483.00000  482.00048  0.21%     -    0s

Cutting planes:
  Gomory: 8
  Cover: 11
  Clique: 1

Explored 0 nodes (34 simplex iterations) in 0.01 seconds
Thread count was 8 (of 8 available processors)

Optimal solution found (tolerance 1.00e-04)
Best objective 4.830000000000e+02, best bound 4.830000000000e+02, gap 0.0%
